====================================================================================================================
File name: 200_20_97_9.def
Creation date: Mon Nov 24 20:40:31 CET 2014
Website: http://imopse.ii.pwr.edu.pl/
Reference:
Myszkowski P. B., Skowronski M. E., Olech L., Oslizlo K.,
Hybrid Ant Colony Optimization in solving Multi-Skill Resource-Constrained Project Scheduling Problem,
Soft Computing, DOI: DOI 10.1007/s00500-014-1455-x
====================================================================================================================
General characteristics:
Tasks: 200
Resources: 20
Precedence relations: 97
Number of skill types: 9
====================================================================================================================
ResourceID 	 Salary 	 Skills
1	 	 	44.6	 	 Q5: 1 	  Q0: 0 	  Q3: 0 	  Q2: 0 	  Q4: 2 	  Q8: 2
2	 	 	89.2	 	 Q6: 1 	  Q0: 1 	  Q4: 2 	  Q3: 0 	  Q1: 2 	  Q5: 2
3	 	 	92.7	 	 Q4: 2 	  Q6: 1 	  Q0: 1 	  Q5: 0 	  Q1: 1 	  Q8: 0
4	 	 	90.8	 	 Q2: 1 	  Q1: 1 	  Q5: 1 	  Q3: 2 	  Q4: 2 	  Q0: 2
5	 	 	17.0	 	 Q1: 1 	  Q3: 0 	  Q8: 2 	  Q2: 0 	  Q4: 2 	  Q7: 0
6	 	 	53.6	 	 Q1: 1 	  Q5: 1 	  Q4: 0 	  Q3: 1 	  Q8: 1 	  Q7: 1
7	 	 	11.1	 	 Q6: 0 	  Q1: 0 	  Q4: 1 	  Q3: 0 	  Q0: 1 	  Q7: 0
8	 	 	95.2	 	 Q1: 1 	  Q0: 2 	  Q6: 2 	  Q5: 1 	  Q2: 1 	  Q8: 0
9	 	 	74.0	 	 Q5: 2 	  Q4: 1 	  Q2: 0 	  Q3: 2 	  Q0: 1 	  Q7: 0
10	 	 	97.0	 	 Q6: 1 	  Q7: 2 	  Q5: 2 	  Q1: 1 	  Q2: 1 	  Q3: 0
11	 	 	27.4	 	 Q8: 2 	  Q5: 2 	  Q4: 1 	  Q0: 1 	  Q2: 2 	  Q3: 1
12	 	 	13.0	 	 Q6: 0 	  Q3: 2 	  Q0: 2 	  Q4: 0 	  Q2: 0 	  Q1: 1
13	 	 	37.0	 	 Q6: 2 	  Q1: 1 	  Q5: 1 	  Q2: 2 	  Q7: 1 	  Q8: 0
14	 	 	78.9	 	 Q7: 2 	  Q8: 2 	  Q6: 1 	  Q3: 2 	  Q5: 0 	  Q4: 0
15	 	 	72.7	 	 Q1: 0 	  Q7: 2 	  Q2: 0 	  Q0: 1 	  Q5: 2 	  Q8: 0
16	 	 	76.8	 	 Q0: 1 	  Q5: 2 	  Q7: 1 	  Q3: 1 	  Q6: 1 	  Q8: 0
17	 	 	50.6	 	 Q6: 0 	  Q0: 0 	  Q2: 0 	  Q1: 0 	  Q5: 2 	  Q4: 2
18	 	 	79.6	 	 Q2: 2 	  Q4: 0 	  Q8: 1 	  Q5: 1 	  Q1: 0 	  Q6: 0
19	 	 	58.5	 	 Q2: 2 	  Q4: 1 	  Q3: 0 	  Q8: 0 	  Q5: 2 	  Q0: 0
20	 	 	18.3	 	 Q8: 0 	  Q2: 2 	  Q0: 2 	  Q6: 1 	  Q4: 0 	  Q3: 0
====================================================================================================================
TaskID 	 Duration 	 Skill 	 Predecessor IDs
1	 	 	17	 Q6: 2
2	 	 	26	 Q7: 0
3	 	 	25	 Q8: 1
4	 	 	38	 Q1: 0
5	 	 	29	 Q5: 2
6	 	 	19	 Q5: 2
7	 	 	38	 Q4: 0
8	 	 	15	 Q1: 2
9	 	 	28	 Q8: 0
10	 	 	10	 Q6: 2
11	 	 	36	 Q2: 0
12	 	 	28	 Q4: 2
13	 	 	35	 Q8: 1
14	 	 	35	 Q4: 0
15	 	 	10	 Q0: 2
16	 	 	25	 Q2: 0
17	 	 	29	 Q7: 1
18	 	 	19	 Q5: 2
19	 	 	28	 Q2: 0
20	 	 	26	 Q1: 1
21	 	 	15	 Q1: 2
22	 	 	14	 Q8: 1
23	 	 	28	 Q5: 1
24	 	 	40	 Q8: 1
25	 	 	18	 Q0: 0
26	 	 	33	 Q3: 2	 	7
27	 	 	17	 Q1: 1
28	 	 	14	 Q6: 1
29	 	 	33	 Q1: 1
30	 	 	37	 Q8: 1
31	 	 	12	 Q2: 1
32	 	 	18	 Q1: 2	 	15
33	 	 	27	 Q0: 2
34	 	 	12	 Q4: 1
35	 	 	12	 Q4: 0
36	 	 	11	 Q0: 1
37	 	 	13	 Q4: 1
38	 	 	13	 Q2: 0
39	 	 	28	 Q1: 1
40	 	 	28	 Q1: 0
41	 	 	23	 Q5: 0
42	 	 	10	 Q6: 2	 	29
43	 	 	18	 Q1: 0
44	 	 	29	 Q0: 0
45	 	 	9	 Q3: 2
46	 	 	31	 Q2: 1
47	 	 	14	 Q6: 2
48	 	 	17	 Q6: 1
49	 	 	31	 Q3: 0	 	4
50	 	 	15	 Q8: 0	 	30
51	 	 	26	 Q2: 1
52	 	 	31	 Q6: 2	 	47
53	 	 	25	 Q3: 2
54	 	 	33	 Q1: 0	 	17	10
55	 	 	25	 Q2: 1
56	 	 	19	 Q0: 0
57	 	 	29	 Q7: 2
58	 	 	25	 Q2: 1
59	 	 	27	 Q8: 1	 	27
60	 	 	17	 Q5: 2	 	33
61	 	 	21	 Q7: 0
62	 	 	20	 Q0: 2
63	 	 	39	 Q5: 0
64	 	 	40	 Q2: 2
65	 	 	11	 Q0: 2
66	 	 	34	 Q6: 1
67	 	 	9	 Q5: 1	 	36
68	 	 	10	 Q4: 1
69	 	 	29	 Q1: 0
70	 	 	35	 Q4: 1	 	53
71	 	 	35	 Q1: 1
72	 	 	36	 Q8: 2
73	 	 	13	 Q6: 1
74	 	 	18	 Q6: 1	 	55
75	 	 	34	 Q7: 2
76	 	 	14	 Q5: 2
77	 	 	24	 Q4: 2	 	18
78	 	 	23	 Q3: 0	 	14
79	 	 	13	 Q5: 2	 	46
80	 	 	13	 Q6: 1
81	 	 	11	 Q2: 2
82	 	 	25	 Q7: 0
83	 	 	13	 Q6: 2	 	58
84	 	 	20	 Q7: 2
85	 	 	11	 Q2: 0
86	 	 	33	 Q5: 2	 	84
87	 	 	33	 Q6: 2	 	82	19
88	 	 	33	 Q3: 1
89	 	 	21	 Q7: 1	 	19
90	 	 	23	 Q5: 1	 	22
91	 	 	18	 Q6: 2
92	 	 	12	 Q0: 0	 	12
93	 	 	32	 Q6: 1
94	 	 	26	 Q4: 0
95	 	 	35	 Q8: 1
96	 	 	37	 Q3: 0
97	 	 	27	 Q2: 2	 	85
98	 	 	12	 Q1: 2
99	 	 	9	 Q2: 0
100	 	 	20	 Q7: 0
101	 	 	13	 Q6: 0
102	 	 	25	 Q2: 0
103	 	 	12	 Q3: 2
104	 	 	37	 Q0: 1	 	47
105	 	 	13	 Q1: 1
106	 	 	32	 Q3: 1	 	52
107	 	 	29	 Q0: 1	 	18
108	 	 	14	 Q8: 1	 	16
109	 	 	23	 Q1: 0
110	 	 	35	 Q0: 0	 	8	61
111	 	 	14	 Q6: 1
112	 	 	25	 Q2: 2	 	30
113	 	 	32	 Q5: 0	 	49
114	 	 	29	 Q4: 0
115	 	 	31	 Q6: 1
116	 	 	12	 Q4: 1	 	104
117	 	 	30	 Q6: 0	 	1
118	 	 	20	 Q2: 2	 	89	104
119	 	 	32	 Q4: 1
120	 	 	39	 Q8: 0	 	20
121	 	 	18	 Q5: 0
122	 	 	11	 Q3: 2
123	 	 	29	 Q5: 1
124	 	 	22	 Q6: 2
125	 	 	36	 Q3: 0
126	 	 	21	 Q2: 2	 	93
127	 	 	40	 Q6: 0	 	23
128	 	 	31	 Q5: 1
129	 	 	38	 Q2: 1	 	48	117
130	 	 	30	 Q6: 2	 	91	46
131	 	 	12	 Q3: 1
132	 	 	11	 Q3: 0	 	65	30
133	 	 	17	 Q2: 0
134	 	 	33	 Q0: 0	 	118
135	 	 	10	 Q7: 2	 	119
136	 	 	16	 Q8: 0
137	 	 	25	 Q0: 1	 	79
138	 	 	21	 Q1: 1
139	 	 	16	 Q8: 0	 	126
140	 	 	34	 Q6: 0
141	 	 	26	 Q0: 1
142	 	 	28	 Q2: 1
143	 	 	23	 Q3: 0	 	36	95
144	 	 	30	 Q3: 1
145	 	 	30	 Q5: 1
146	 	 	13	 Q3: 0
147	 	 	18	 Q8: 2
148	 	 	29	 Q3: 0	 	31
149	 	 	27	 Q3: 2
150	 	 	10	 Q3: 0	 	94
151	 	 	36	 Q0: 0
152	 	 	19	 Q8: 1	 	88	64
153	 	 	23	 Q6: 2	 	140
154	 	 	19	 Q5: 2	 	52
155	 	 	30	 Q0: 1
156	 	 	29	 Q1: 2
157	 	 	26	 Q8: 0	 	16	116	17
158	 	 	20	 Q1: 1
159	 	 	31	 Q0: 2	 	155
160	 	 	18	 Q7: 2	 	117
161	 	 	22	 Q2: 1	 	139
162	 	 	12	 Q3: 0
163	 	 	37	 Q1: 2
164	 	 	31	 Q3: 2
165	 	 	16	 Q7: 2
166	 	 	17	 Q4: 2
167	 	 	25	 Q5: 2	 	162
168	 	 	15	 Q5: 1	 	106	11
169	 	 	34	 Q3: 2	 	75
170	 	 	9	 Q8: 0
171	 	 	35	 Q6: 1
172	 	 	25	 Q5: 2	 	8
173	 	 	37	 Q5: 2
174	 	 	15	 Q1: 0	 	170
175	 	 	27	 Q8: 0	 	93
176	 	 	9	 Q1: 1	 	2	64
177	 	 	18	 Q4: 1	 	94	62
178	 	 	16	 Q8: 1	 	36
179	 	 	25	 Q4: 2	 	167
180	 	 	23	 Q3: 2	 	88
181	 	 	36	 Q1: 2	 	27
182	 	 	15	 Q0: 1
183	 	 	13	 Q3: 1	 	25
184	 	 	11	 Q2: 0
185	 	 	37	 Q8: 2	 	8
186	 	 	40	 Q8: 1	 	74
187	 	 	26	 Q6: 2	 	29	42
188	 	 	30	 Q4: 0	 	57	108
189	 	 	9	 Q5: 0	 	176
190	 	 	26	 Q4: 2	 	136
191	 	 	16	 Q4: 2
192	 	 	26	 Q6: 1	 	135
193	 	 	34	 Q3: 0
194	 	 	16	 Q0: 2	 	153
195	 	 	37	 Q8: 2	 	116	151	155
196	 	 	28	 Q4: 2	 	103
197	 	 	30	 Q4: 2	 	90
198	 	 	39	 Q6: 1	 	165	70
199	 	 	26	 Q0: 0	 	163
200	 	 	33	 Q0: 1
====================================================================================================================
